
******************************************************************************
This program contains Ipopt, a library for large-scale nonlinear optimization.
 Ipopt is released as open source code under the Eclipse Public License (EPL).
         For more information visit http://projects.coin-or.org/Ipopt

This version of Ipopt was compiled from source code available at
    https://github.com/IDAES/Ipopt as part of the Institute for the Design of
    Advanced Energy Systems Process Systems Engineering Framework (IDAES PSE
    Framework) Copyright (c) 2018-2019. See https://github.com/IDAES/idaes-pse.

This version of Ipopt was compiled using HSL, a collection of Fortran codes
    for large-scale scientific computation.  All technical papers, sales and
    publicity material resulting from use of the HSL codes within IPOPT must
    contain the following acknowledgement:
        HSL, a collection of Fortran codes for large-scale scientific
        computation. See http://www.hsl.rl.ac.uk.
******************************************************************************

This is Ipopt version 3.13.2, running with linear solver ma27.

Number of nonzeros in equality constraint Jacobian...:      958
Number of nonzeros in inequality constraint Jacobian.:        0
Number of nonzeros in Lagrangian Hessian.............:      832

Total number of variables............................:      416
                     variables with only lower bounds:      128
                variables with lower and upper bounds:      224
                     variables with only upper bounds:        0
Total number of equality constraints.................:      415
Total number of inequality constraints...............:        0
        inequality constraints with only lower bounds:        0
   inequality constraints with lower and upper bounds:        0
        inequality constraints with only upper bounds:        0

iter    objective    inf_pr   inf_du lg(mu)  ||d||  lg(rg) alpha_du alpha_pr  ls
   0  0.0000000e+00 5.64e-01 5.55e-16  -1.0 0.00e+00    -  0.00e+00 0.00e+00   0
   1  1.1407260e+00 5.67e-01 7.23e+03  -1.0 1.21e+05    -  5.99e-01 6.79e-01h  1
   2  1.1866427e+00 5.40e-01 6.90e+03  -1.0 3.45e+04    -  9.22e-01 3.98e-02h  1
   3  2.1900940e+00 3.07e-01 4.19e+03  -1.0 1.44e+05    -  8.39e-01 4.11e-01h  1
   4  6.2921412e+00 1.73e-02 6.61e+03  -1.0 9.62e+04    -  5.78e-01 9.90e-01h  1
   5  6.6792195e+00 4.05e-04 3.14e+03  -1.0 9.00e+03    -  4.54e-01 9.90e-01h  1
   6  8.2226345e+00 7.24e-05 1.90e+04  -1.0 3.15e+04    -  9.56e-01 9.90e-01H  1
   7  7.2747793e+00 2.29e-04 2.55e+02  -1.0 1.94e+04    -  9.90e-01 9.90e-01H  1
   8  6.6913786e+00 1.11e-04 1.44e+02  -2.5 1.26e+04    -  9.97e-01 9.97e-01f  1
   9  6.6550943e+00 3.06e-06 1.53e+01  -5.7 7.78e+02    -  1.00e+00 1.00e+00h  1
In iteration 9, 32 Slacks too small, adjusting variable bounds
iter    objective    inf_pr   inf_du lg(mu)  ||d||  lg(rg) alpha_du alpha_pr  ls
  10  6.6550729e+00 3.62e-11 3.59e+07  -5.7 3.69e-01    -  1.00e+00 1.00e+00h  1
  11  6.6550729e+00 2.21e-11 1.08e-03  -5.7 4.21e-05    -  1.00e+00 1.00e+00h  1

Number of Iterations....: 11

                                   (scaled)                 (unscaled)
Objective...............:   6.6550728723686801e+00    6.6550728723686801e+00
Dual infeasibility......:   1.0830163955688477e-03    1.0830163955688477e-03
Constraint violation....:   2.2105428598706567e-11    2.2105428598706567e-11
Complementarity.........:   1.8449178662634865e-06    1.8449178662634865e-06
Overall NLP error.......:   6.8097692414813139e-09    1.0830163955688477e-03


Number of objective function evaluations             = 14
Number of objective gradient evaluations             = 12
Number of equality constraint evaluations            = 14
Number of inequality constraint evaluations          = 0
Number of equality constraint Jacobian evaluations   = 12
Number of inequality constraint Jacobian evaluations = 0
Number of Lagrangian Hessian evaluations             = 11
Total CPU secs in IPOPT (w/o function evaluations)   =      0.035
Total CPU secs in NLP function evaluations           =      0.306

EXIT: Optimal Solution Found.
